5 51
0+42+3+50+29+26+6+18+36+22+49+2+23+40+1+31+12+9+14+11+5+7+13+4+33+8+47+32+15+21+25+30+19+43+34+10+24+37+16+45+39+38+20+48+35+44+27+28+17+46+41
0+42+3+50+29+26+6+18+36+22+49+2+23+40+1+31+12+9+14+11+5+7+13+4+33+8+47+32+15+21+25+30+19+43+34+10+24+37+16+45+39+38+20+48+35+44+27+28+17+46+41
0+42+3+50+29+26+6+18+36+22+49+2+23+40+1+31+12+9+14+11+5+7+13+4+33+8+47+32+15+21+25+30+19+43+34+10+24+37+16+45+39+38+20+48+35+44+27+28+17+46+41
0+42+3+50+29+26+6+18+36+22+49+2+23+40+1+31+12+9+14+11+5+7+13+4+33+8+47+32+15+21+25+30+19+43+34+10+24+37+16+45+39+38+20+48+35+44+27+28+17+46+41
0+42+3+50+29+26+6+18+36+22+49+2+23+40+1+31+12+9+14+11+5+7+13+4+33+8+47+32+15+21+25+30+19+43+34+10+24+37+16+45+39+38+20+48+35+44+27+28+17+46+41
